num_features = 35;
num_usage_limits = 8;
num_plans = 5;
num_addons = 9;

features = ["leadManagement", "leadAssigmentAndRouting", "duplicateBlocking", "webToLeadCapture", "massEmail", "campaignManagement", "emailTemplates", "leadRegistration", "campaignInfluence", "accountAndContactManagement", "opportunityManagement", "customizableSalesProcess", "taskManagementActivityFeed", "personAccounts", "salesConsoleApps", "salesTeams", "calendarAll", "inbox", "workQueue", "salesforceMobileApp", "fullOfflineMobileFunctionality", "collaborativeForecasting", "forecastingMobileApp", "customOpportunityFieldsInForecasting", "opportunitySplits", "enterpriseTerritoryManagement", "predictiveForeCasting", "contacts", "salesOrders", "productAndPriceBooks", "quotes", "configurableReportsAndDashboards", "advancedReportingFeatures", "opportunityScoring", "leadScoring", "pipelineInspection", "conversationInsights", "files", "topicsAndRecommendations", "chatter", "caseManagement", "knowledge", "lightingFlowAutomation", "lightningAppBuilder", "appExchange", "dataStoragePerUser", "fileStoragePerUser", "unlimitedCustomApplications", "customizableProfilesAndPageLayouts", "rolesAndPermissions", "recordTypes", "developerSandbox", "developerProSandbox", "partialSandbox", "fullSandbox", "platform", "workflowAndApproval", "premiumActivityCapture", "salesCadences", "emailIntegrationWithOutlook", "googleAppsIntegration", "webServicesAPI"];
usage_limits = ["numberOfCampaignsPerOportunity", "numberOfCustomAppsPerOrg", "numberOfProcessesAndFlows", "numberOfCustomizableProfiles", "numberOfRoles", "numberOfRecordTypes", "numberOfPartialSandbox", "numberOfFullSanbox"];
plans = ["STARTER", "PROFESSIONAL", "ENTERPRISE", "UNLIMITED"];
addons = ["inbox", "workQueue", "predictiveForeCasting", "leadScoring", "pipelineInspection", "conversationInsights", "developerProSandbox", "premiumActivityCapture", "salesCadences"];

plans_prices = [25.0, 80.0, 165.0, 330.0];
addons_prices = [1, 1, 1, 1, 1, 1, 1, 1, 1];

plans_features = array2d(PLANS, FEATURES, [
    % STARTER
    1, 1, 1, 1, 1, 1, 1, 0, 0, 1, 1, 1, 1, 0, 0, 0, 0, 1, 0, 1, 1, 0, 0, 0, 0, 0, 0, 0, 0, 0, 0, 1, 0, 0, 0, 0, 1, 1, 1, 1, 1, 1, 1, 1, 1, 0, 0, 0, 0, 0, 0, 0, 0, 0, 0, 0, 0, 0, 0, 0, 1, 1, 0,
    % PROFESSIONAL
    1, 1, 1, 1, 1, 1, 1, 1, 1, 1, 1, 1, 1, 1, 1, 0, 0, 0, 0, 1, 1, 1, 1, 0, 0, 0, 0, 1, 1, 1, 1, 1, 0, 0, 0, 0, 1, 1, 1, 1, 1, 1, 1, 1, 1, 1, 0, 0, 1, 0, 0, 0, 0, 0, 0, 0, 0, 0, 0, 0, 1, 1, 0,
    % ENTERPRISE
    1, 1, 1, 1, 1, 1, 1, 1, 1, 1, 1, 1, 1, 1, 1, 1, 1, 0, 0, 1, 1, 1, 1, 1, 1, 1, 0, 1, 1, 1, 1, 1, 1, 1, 0, 0, 1, 1, 1, 1, 1, 1, 1, 1, 1, 1, 0, 1, 1, 0, 0, 0, 0, 0, 0, 0, 0, 0, 0, 0, 1, 1, 1,
    % UNLIMITED
    1, 1, 1, 1, 1, 1, 1, 1, 1, 1, 1, 1, 1, 1, 1, 1, 1, 1, 1, 1, 1, 1, 1, 1, 1, 1, 1, 1, 1, 1, 1, 1, 1, 1, 1, 1, 1, 1, 1, 1, 1, 1, 1, 1, 1, 1, 1, 1, 1, 1, 1, 1, 1, 1, 1, 1, 1, 1, 1, 1, 1, 1, 1
]);
plans_usage_limits = array2d(PLANS, USAGE_LIMITS, [
    % STARTER
    3,1,5,2,2,3,1,1,
    % PROFESSIONAL
    3,1,5,2,2,3,1,1,
    % ENTERPRISE
    5,10000000,10000000,10000000,10000000,10000000,1,1,
    % UNLIMITED
    5,10000000,10000000,10000000,10000000,10000000,1,1
]);

linked_features = array2d(USAGE_LIMITS, FEATURES, [
    % numberOfCampaignsPerOportunity
    0,0,0,0,0,0,0,0,1,0,0,0,0,0,0,0,0,0,0,0,0,0,0,0,0,0,1,0,0,0,0,0,0,0,0,0,0,0,0,0,0,0,0,0,0,0,0,0,0,0,0,0,0,0,0,0,0,0,0,0,0,0,
    % numberOfCustomAppsPerOrg
    0,0,0,0,0,0,0,0,0,0,0,0,0,1,0,0,0,0,0,0,0,0,0,0,0,0,0,0,0,0,0,0,0,0,0,0,0,0,0,0,0,0,0,0,0,0,0,0,0,0,0,0,0,0,0,0,0,0,0,0,0,0,
    % numberOfProcessesAndFlows
    0,0,0,0,0,0,0,0,0,0,0,0,0,0,0,0,0,0,0,0,0,0,0,0,0,0,0,0,0,0,0,0,0,0,0,0,0,0,0,0,0,0,0,0,0,0,0,0,0,0,0,0,0,0,0,0,0,0,0,0,0,0,
    % numberOfCustomizableProfiles
    0,0,0,0,0,0,0,0,0,0,0,0,0,0,0,0,0,0,0,0,0,0,0,0,0,0,0,0,0,0,0,0,0,0,0,0,0,0,0,0,0,0,0,0,0,1,0,0,0,0,0,0,0,0,0,0,0,0,0,0,0,0,
    % numberOfRoles
    0,0,0,0,0,0,0,0,0,0,0,0,0,0,0,1,0,0,0,0,0,0,0,0,0,0,0,0,0,0,0,0,0,0,0,0,0,0,0,0,0,0,0,0,0,0,0,0,0,0,0,0,0,0,0,0,0,0,0,0,0,0,
    % numberOfRecordTypes
    0,0,0,0,0,0,0,0,0,0,0,0,0,0,0,0,0,0,0,0,0,0,0,0,0,0,0,0,0,0,0,0,0,0,0,0,0,0,0,0,0,0,0,0,0,0,1,0,0,0,0,0,0,0,0,0,0,0,0,0,0,0,
    % numberOfPartialSandbox
    0,0,0,0,0,0,0,0,0,0,0,0,0,0,0,0,0,0,0,0,0,0,0,0,0,0,0,0,0,0,0,0,0,0,0,0,0,0,0,0,0,0,0,0,0,0,0,1,0,0,0,0,0,0,0,0,0,0,0,0,0,
    % numberOfFullSanbox
    0,0,0,0,0,0,0,0,0,0,0,0,0,0,0,0,0,0,0,0,0,0,0,0,0,0,0,0,0,0,0,0,0,0,0,0,0,0,0,0,0,0,0,0,0,0,0,0,1,0,0,0,0,0,0,0,0,0,0,0,0,
]);

addons_features = array2d(ADDONS, FEATURES, [
    % inbox
    0,0,0,0,0,0,0,0,0,0,0,0,0,0,0,0,0,1,0,0,0,0,0,0,0,0,0,0,0,0,0,0,0,0,0,0,0,0,0,0,0,0,0,0,0,0,0,0,0,0,0,0,0,0,0,0,0,0,0,0,0,0,
    % workQueue
    0,0,0,0,0,0,0,0,0,0,0,0,0,0,0,0,0,0,1,0,0,0,0,0,0,0,0,0,0,0,0,0,0,0,0,0,0,0,0,0,0,0,0,0,0,0,0,0,0,0,0,0,0,0,0,0,0,0,0,0,0,0,
    % predictiveForeCasting
    0,0,0,0,0,0,0,0,0,0,0,0,0,0,0,0,0,0,0,0,0,0,0,0,0,0,1,0,0,0,0,0,0,0,0,0,0,0,0,0,0,0,0,0,0,0,0,0,0,0,0,0,0,0,0,0,0,0,0,0,0,0,
    % leadScoring
    0,0,0,0,0,0,0,0,0,0,0,0,0,0,0,0,0,0,0,0,0,0,0,0,0,0,0,0,0,0,0,0,0,1,0,0,0,0,0,0,0,0,0,0,0,0,0,0,0,0,0,0,0,0,0,0,0,0,0,0,0,0,
    % pipelineInspection
    0,0,0,0,0,0,0,0,0,0,0,0,0,0,0,0,0,0,0,0,0,0,0,0,0,0,0,0,0,0,0,0,0,0,1,0,0,0,0,0,0,0,0,0,0,0,0,0,0,0,0,0,0,0,0,0,0,0,0,0,0,0,
    % conversationInsights
    0,0,0,0,0,0,0,0,0,0,0,0,0,0,0,0,0,0,0,0,0,0,0,0,0,0,0,0,0,0,0,0,0,0,0,1,0,0,0,0,0,0,0,0,0,0,0,0,0,0,0,0,0,0,0,0,0,0,0,0,0,0,
    % developerProSandbox
    0,0,0,0,0,0,0,0,0,0,0,0,0,0,0,0,0,0,0,0,0,0,0,0,0,0,0,0,0,0,0,0,0,0,0,0,0,0,0,0,0,0,0,0,0,0,0,0,1,0,0,0,0,0,0,0,0,0,0,0,0,0,
    % premiumActivityCapture
    0,0,0,0,0,0,0,0,0,0,0,0,0,0,0,0,0,0,0,0,0,0,0,0,0,0,0,0,0,0,0,0,0,0,0,0,0,0,0,0,0,0,0,0,0,0,0,0,0,0,0,0,0,0,0,0,1,0,0,0,0,0,
    % salesCadences
    0,0,0,0,0,0,0,0,0,0,0,0,0,0,0,0,0,0,0,0,0,0,0,0,0,0,0,0,0,0,0,0,0,0,0,0,0,0,0,0,0,0,0,0,0,0,0,0,0,0,0,0,0,0,0,1,0,0,0,0,0,0,
]);
addons_usage_limits = array2d(ADDONS, USAGE_LIMITS, [
    % inbox
    0,0,0,0,0,0,0,0,
    % workQueue
    0,0,0,0,0,0,0,0,
    % predictiveForeCasting
    0,0,0,0,0,0,0,0,
    % leadScoring
    0,0,0,0,0,0,0,0,
    % pipelineInspection
    0,0,0,0,0,0,0,0,
    % conversationInsights
    0,0,0,0,0,0,0,0,
    % developerProSandbox
    0,0,0,0,0,0,0,0,
    % premiumActivityCapture
    0,0,0,0,0,0,0,0,
    % salesCadences
    0,0,0,0,0,0,0,0,
]);
addons_usage_limits_extensions = array2d(ADDONS, USAGE_LIMITS, [
    % inbox
    0,0,0,0,0,0,0,0,
    % workQueue
    0,0,0,0,0,0,0,0,
    % predictiveForeCasting
    0,0,0,0,0,0,0,0,
    % leadScoring
    0,0,0,0,0,0,0,0,
    % pipelineInspection
    0,0,0,0,0,0,0,0,
    % conversationInsights
    0,0,0,0,0,0,0,0,
    % developerProSandbox
    0,0,0,0,0,0,0,0,
    % premiumActivityCapture
    0,0,0,0,0,0,0,0,
    % salesCadences
    0,0,0,0,0,0,0,0,
]);
addons_available_for = array2d(ADDONS, PLANS, [
    % inbox
    0,1,1,0,
    % workQueue
    0,0,1,0,
    % predictiveForeCasting
    0,0,1,0,
    % leadScoring
    0,0,1,0,
    % pipelineInspection
    0,0,1,0,
    % conversationInsights
    0,0,1,0,
    % developerProSandbox
    0,1,1,0,
    % premiumActivityCapture
    0,1,1,0,
    % salesCadences
    0,0,1,0,
]);

addons_depends_on = array2d(ADDONS, ADDONS, [
    % inbox
    0,0,0,0,0,0,0,0,0,
    % workQueue
    0,0,0,0,0,0,0,0,0,
    % predictiveForeCasting
    0,0,0,0,0,0,0,0,0,
    % leadScoring
    0,0,0,0,0,0,0,0,0,
    % pipelineInspection
    0,0,0,0,0,0,0,0,0,
    % conversationInsights
    0,0,0,0,0,0,0,0,0,
    % developerProSandbox
    0,0,0,0,0,0,0,0,0,
    % premiumActivityCapture
    0,0,0,0,0,0,0,0,0,
    % salesCadences
    0,0,0,0,0,0,0,0,0,
]);